webassembly/ejemplos_dzn/folder4_json_80.dzn
TERM = { '.', 's(2)', 'in_1', 'local_1', 'in_2', 'in_3', 's(1)', 's(0)', 'in_0'};
null = '.';
s = 4;
n = 9;
ndeps = 0;
max_registers_sz = 4;
NR = 1;
registers = [|'local_1', 's(0)'|];
dependencies = [| |];
GET_ENUM = { GET1, GET2, GET3, GET4, GET5};
SET_ENUM = { SET1, SET2, SET3, SET4, SET5};
TEE_ENUM = { TEE1, TEE2, TEE3, TEE4, TEE5};
N = 3;
OP = { 'i32.const_0', 'i32.sub_0', 'i32.add_0' };
in_ops = [0, 2, 2 ];
out_ops = [1, 1, 1 ];
in1 = ['.', 'in_2', 'in_0' ];
in2 = ['.', 'in_3', 'in_1' ];
in3 = ['.', '.', '.' ];
out1 = ['s(2)', 's(1)', 's(0)' ];
out2 = ['.', '.', '.' ];
out3 = ['.', '.', '.' ];
comm = [false, false, true ];
gas = [1, 1, 1 ];
sz = [1, 1, 1 ];
stor = [false, false, false ];
lb = [ 1, 1, 1 ];
ub = [ 4, 4, 4 ];
startstack = [ 'in_0', 'in_1', 'in_2', 'in_3', null, null, null, null, null ];
endstack = [ 's(2)', 's(1)', null, null, null, null, null, null, null ];
